--- Job EmployeeScheduling.gms Start 11/30/23 04:46:58 45.2.0 e4d2ee31 WEX-WEI x86 64bit/MS Windows
--- Applying:
    C:\GAMS\45\gmsprmNT.txt
--- GAMS Parameters defined
    Input "C:\Users\rajes\Desktop\CL643 Project\EmployeeScheduling.gms"
    PageSize 0
    ScrDir "C:\Users\rajes\Desktop\CL643 Project\225a\"
    SysDir C:\GAMS\45\
    LogOption 3
    ErrMsg 1
    ErrorLog 99
    IDE 1
    LstTitleLeftAligned 1
Licensee: GAMS Demo, for EULA and demo limitations see   G230930/0001CB-GEN
          https://www.gams.com/latest/docs/UG%5FLicense.html         DC0000
          C:\GAMS\45\gamslice.txt
          Demo license for demonstration and instructional purposes only
Processor information: 1 socket(s), 4 core(s), and 8 thread(s) available
GAMS 45.2.0   Copyright (C) 1987-2023 GAMS Development. All rights reserved
--- Starting compilation
--- EmployeeScheduling.gms(71) 3 Mb
--- Starting execution: elapsed 0:00:00.014
--- EmployeeScheduling.gms(69) 4 Mb
--- Generating MIP model EmployeeScheduling
--- EmployeeScheduling.gms(70) 4 Mb
---   399 rows  211 columns  1,171 non-zeroes
---   210 discrete-columns
--- Range statistics (absolute non-zero finite values)
--- RHS       [min, max] : [ 1.000E+00, 5.000E+00] - Zero values observed as well
--- Bound     [min, max] : [ 1.000E+00, 1.000E+00] - Zero values observed as well
--- Matrix    [min, max] : [ 1.000E+00, 3.610E+02]
--- Executing CPLEX (Solvelink=2): elapsed 0:00:00.031

IBM ILOG CPLEX   45.2.0 e4d2ee31 Oct 30, 2023          WEI x86 64bit/MS Window

*** This solver runs with a demo license. No commercial use.

*** Error Cannot open parameter file "C:\Users\rajes\Desktop\CL643 Project\cplex.opt"
*** Error Error code = 2; No such file or directory

--- GMO setup time: 0.00s
--- Space for names approximately 0.02 Mb
--- Use option 'names no' to turn use of names off
--- GMO memory 0.57 Mb (peak 0.57 Mb)
--- Dictionary memory 0.00 Mb
--- Cplex 22.1.1.0 link memory 0.01 Mb (peak 0.04 Mb)
--- Starting Cplex

Version identifier: 22.1.1.0 | 2022-11-27 | 9160aff4d
CPXPARAM_Advance                                 0
CPXPARAM_Threads                                 1
CPXPARAM_MIP_Display                             4
CPXPARAM_MIP_Pool_Capacity                       0
CPXPARAM_MIP_Tolerances_AbsMIPGap                0
Generic callback                                 0x50
Found incumbent of value 16533.000000 after 0.00 sec. (0.04 ticks)
Tried aggregator 1 time.
MIP Presolve eliminated 170 rows and 71 columns.
Reduced MIP has 228 rows, 140 columns, and 660 nonzeros.
Reduced MIP has 140 binaries, 0 generals, 0 SOSs, and 0 indicators.
Presolve time = 0.02 sec. (0.46 ticks)
Probing time = 0.00 sec. (0.08 ticks)
Tried aggregator 1 time.
MIP Presolve eliminated 114 rows and 70 columns.
Reduced MIP has 114 rows, 70 columns, and 330 nonzeros.
Reduced MIP has 70 binaries, 0 generals, 0 SOSs, and 0 indicators.
Presolve time = 0.00 sec. (0.24 ticks)
Probing time = 0.00 sec. (0.04 ticks)
Tried aggregator 1 time.
Detecting symmetries...
Reduced MIP has 114 rows, 70 columns, and 330 nonzeros.
Reduced MIP has 70 binaries, 0 generals, 0 SOSs, and 0 indicators.
Presolve time = 0.00 sec. (0.30 ticks)
Probing time = 0.00 sec. (0.04 ticks)
Clique table members: 95.
MIP emphasis: balance optimality and feasibility.
MIP search method: dynamic search.
Parallel mode: none, using 1 thread.
Tried aggregator 1 time.
No LP presolve or aggregator reductions.
Presolve time = 0.00 sec. (0.04 ticks)
Initializing dual steep norms . . .
Root relaxation solution time = 0.00 sec. (0.10 ticks)

        Nodes                                         Cuts/
   Node  Left     Objective  IInf  Best Integer    Best Bound    ItCnt     Gap

*     0+    0                        11250.0000     3750.0000            66.67%
Found incumbent of value 11250.000000 after 0.02 sec. (3.00 ticks)
      0     0        cutoff          11250.0000                      1    0.00%

Root node processing (before b&c):
  Real time             =    0.03 sec. (3.00 ticks)
Sequential b&c:
  Real time             =    0.00 sec. (0.00 ticks)
                          ------------
Total (root+branch&cut) =    0.03 sec. (3.00 ticks)

--- MIP status (101): integer optimal solution.
--- Cplex Time: 0.03sec (det. 3.00 ticks)

--- Returning a primal only solution to GAMS (marginals all set to NA).
--- Fixing integer variables and solving final LP...

Version identifier: 22.1.1.0 | 2022-11-27 | 9160aff4d
CPXPARAM_Advance                                 2
CPXPARAM_Threads                                 1
CPXPARAM_MIP_Display                             4
CPXPARAM_MIP_Pool_Capacity                       0
CPXPARAM_MIP_Tolerances_AbsMIPGap                0
Tried aggregator 1 time.
LP Presolve eliminated 398 rows and 211 columns.
All rows and columns eliminated.
Presolve time = 0.00 sec. (0.14 ticks)

--- Fixed MIP status (1): optimal.
--- Cplex Time: 0.00sec (det. 0.25 ticks)


Proven optimal solution
MIP Solution:        11250.000000    (1 iterations, 0 nodes)
Final Solve:         11250.000000    (0 iterations)

Best possible:       11250.000000
Absolute gap:            0.000000
Relative gap:            0.000000

--- Reading solution for model EmployeeScheduling
*** Status: Normal completion
--- Job EmployeeScheduling.gms Stop 11/30/23 04:46:58 elapsed 0:00:00.147
